p cnf 48 396
1 7 13 19 25 31 37 43 0
2 8 14 20 26 32 38 44 0
3 9 15 21 27 33 39 45 0
4 10 16 22 28 34 40 46 0
5 11 17 23 29 35 41 47 0
6 12 18 24 30 36 42 48 0
-1 -2 0
-1 -3 0
-1 -4 0
-1 -5 0
-1 -6 0
-2 -3 0
-2 -4 0
-2 -5 0
-2 -6 0
-3 -4 0
-3 -5 0
-3 -6 0
-4 -5 0
-4 -6 0
-5 -6 0
-7 -8 0
-7 -9 0
-7 -10 0
-7 -11 0
-7 -12 0
-8 -9 0
-8 -10 0
-8 -11 0
-8 -12 0
-9 -10 0
-9 -11 0
-9 -12 0
-10 -11 0
-10 -12 0
-11 -12 0
-13 -14 0
-13 -15 0
-13 -16 0
-13 -17 0
-13 -18 0
-14 -15 0
-14 -16 0
-14 -17 0
-14 -18 0
-15 -16 0
-15 -17 0
-15 -18 0
-16 -17 0
-16 -18 0
-17 -18 0
-19 -20 0
-19 -21 0
-19 -22 0
-19 -23 0
-19 -24 0
-20 -21 0
-20 -22 0
-20 -23 0
-20 -24 0
-21 -22 0
-21 -23 0
-21 -24 0
-22 -23 0
-22 -24 0
-23 -24 0
-25 -26 0
-25 -27 0
-25 -28 0
-25 -29 0
-25 -30 0
-26 -27 0
-26 -28 0
-26 -29 0
-26 -30 0
-27 -28 0
-27 -29 0
-27 -30 0
-28 -29 0
-28 -30 0
-29 -30 0
-31 -32 0
-31 -33 0
-31 -34 0
-31 -35 0
-31 -36 0
-32 -33 0
-32 -34 0
-32 -35 0
-32 -36 0
-33 -34 0
-33 -35 0
-33 -36 0
-34 -35 0
-34 -36 0
-35 -36 0
-37 -38 0
-37 -39 0
-37 -40 0
-37 -41 0
-37 -42 0
-38 -39 0
-38 -40 0
-38 -41 0
-38 -42 0
-39 -40 0
-39 -41 0
-39 -42 0
-40 -41 0
-40 -42 0
-41 -42 0
-43 -44 0
-43 -45 0
-43 -46 0
-43 -47 0
-43 -48 0
-44 -45 0
-44 -46 0
-44 -47 0
-44 -48 0
-45 -46 0
-45 -47 0
-45 -48 0
-46 -47 0
-46 -48 0
-47 -48 0
-1 -8 0
-1 -9 0
-1 -10 0
-1 -11 0
-1 -12 0
-2 -7 0
-2 -9 0
-2 -10 0
-2 -11 0
-2 -12 0
-3 -7 0
-3 -8 0
-3 -10 0
-3 -11 0
-3 -12 0
-4 -7 0
-4 -8 0
-4 -9 0
-4 -11 0
-4 -12 0
-5 -7 0
-5 -8 0
-5 -9 0
-5 -10 0
-5 -12 0
-6 -7 0
-6 -8 0
-6 -9 0
-6 -10 0
-6 -11 0
-1 -38 0
-1 -39 0
-1 -40 0
-1 -41 0
-1 -42 0
-2 -37 0
-2 -39 0
-2 -40 0
-2 -41 0
-2 -42 0
-3 -37 0
-3 -38 0
-3 -40 0
-3 -41 0
-3 -42 0
-4 -37 0
-4 -38 0
-4 -39 0
-4 -41 0
-4 -42 0
-5 -37 0
-5 -38 0
-5 -39 0
-5 -40 0
-5 -42 0
-6 -37 0
-6 -38 0
-6 -39 0
-6 -40 0
-6 -41 0
-1 -44 0
-1 -45 0
-1 -46 0
-1 -47 0
-1 -48 0
-2 -43 0
-2 -45 0
-2 -46 0
-2 -47 0
-2 -48 0
-3 -43 0
-3 -44 0
-3 -46 0
-3 -47 0
-3 -48 0
-4 -43 0
-4 -44 0
-4 -45 0
-4 -47 0
-4 -48 0
-5 -43 0
-5 -44 0
-5 -45 0
-5 -46 0
-5 -48 0
-6 -43 0
-6 -44 0
-6 -45 0
-6 -46 0
-6 -47 0
-7 -26 0
-7 -27 0
-7 -28 0
-7 -29 0
-7 -30 0
-8 -25 0
-8 -27 0
-8 -28 0
-8 -29 0
-8 -30 0
-9 -25 0
-9 -26 0
-9 -28 0
-9 -29 0
-9 -30 0
-10 -25 0
-10 -26 0
-10 -27 0
-10 -29 0
-10 -30 0
-11 -25 0
-11 -26 0
-11 -27 0
-11 -28 0
-11 -30 0
-12 -25 0
-12 -26 0
-12 -27 0
-12 -28 0
-12 -29 0
-13 -32 0
-13 -33 0
-13 -34 0
-13 -35 0
-13 -36 0
-14 -31 0
-14 -33 0
-14 -34 0
-14 -35 0
-14 -36 0
-15 -31 0
-15 -32 0
-15 -34 0
-15 -35 0
-15 -36 0
-16 -31 0
-16 -32 0
-16 -33 0
-16 -35 0
-16 -36 0
-17 -31 0
-17 -32 0
-17 -33 0
-17 -34 0
-17 -36 0
-18 -31 0
-18 -32 0
-18 -33 0
-18 -34 0
-18 -35 0
-19 -32 0
-19 -33 0
-19 -34 0
-19 -35 0
-19 -36 0
-20 -31 0
-20 -33 0
-20 -34 0
-20 -35 0
-20 -36 0
-21 -31 0
-21 -32 0
-21 -34 0
-21 -35 0
-21 -36 0
-22 -31 0
-22 -32 0
-22 -33 0
-22 -35 0
-22 -36 0
-23 -31 0
-23 -32 0
-23 -33 0
-23 -34 0
-23 -36 0
-24 -31 0
-24 -32 0
-24 -33 0
-24 -34 0
-24 -35 0
-25 -32 0
-25 -33 0
-25 -34 0
-25 -35 0
-25 -36 0
-26 -31 0
-26 -33 0
-26 -34 0
-26 -35 0
-26 -36 0
-27 -31 0
-27 -32 0
-27 -34 0
-27 -35 0
-27 -36 0
-28 -31 0
-28 -32 0
-28 -33 0
-28 -35 0
-28 -36 0
-29 -31 0
-29 -32 0
-29 -33 0
-29 -34 0
-29 -36 0
-30 -31 0
-30 -32 0
-30 -33 0
-30 -34 0
-30 -35 0
-25 -38 0
-25 -39 0
-25 -40 0
-25 -41 0
-25 -42 0
-26 -37 0
-26 -39 0
-26 -40 0
-26 -41 0
-26 -42 0
-27 -37 0
-27 -38 0
-27 -40 0
-27 -41 0
-27 -42 0
-28 -37 0
-28 -38 0
-28 -39 0
-28 -41 0
-28 -42 0
-29 -37 0
-29 -38 0
-29 -39 0
-29 -40 0
-29 -42 0
-30 -37 0
-30 -38 0
-30 -39 0
-30 -40 0
-30 -41 0
-25 -44 0
-25 -45 0
-25 -46 0
-25 -47 0
-25 -48 0
-26 -43 0
-26 -45 0
-26 -46 0
-26 -47 0
-26 -48 0
-27 -43 0
-27 -44 0
-27 -46 0
-27 -47 0
-27 -48 0
-28 -43 0
-28 -44 0
-28 -45 0
-28 -47 0
-28 -48 0
-29 -43 0
-29 -44 0
-29 -45 0
-29 -46 0
-29 -48 0
-30 -43 0
-30 -44 0
-30 -45 0
-30 -46 0
-30 -47 0
